Version identifier: 12.10.0.0 | 2019-11-26 | 843d4de
CPXPARAM_WorkMem                                 16384
CPXPARAM_MIP_Limits_TreeMemory                   24576
Tried aggregator 2 times.
MIP Presolve modified 10 coefficients.
Aggregator did 45 substitutions.
Reduced MIP has 245 rows, 300 columns, and 1115 nonzeros.
Reduced MIP has 300 binaries, 0 generals, 0 SOSs, and 0 indicators.
Presolve time = 0,00 sec. (1,16 ticks)
Found incumbent of value 740,000000 after 0,00 sec. (1,88 ticks)
Probing time = 0,00 sec. (0,43 ticks)
Tried aggregator 1 time.
Detecting symmetries...
MIP Presolve eliminated 75 rows and 0 columns.
MIP Presolve added 150 rows and 0 columns.
Reduced MIP has 320 rows, 300 columns, and 1190 nonzeros.
Reduced MIP has 300 binaries, 0 generals, 0 SOSs, and 0 indicators.
Presolve time = 0,00 sec. (1,43 ticks)
Probing time = 0,00 sec. (0,41 ticks)
Clique table members: 755.
MIP emphasis: balance optimality and feasibility.
MIP search method: dynamic search.
Parallel mode: deterministic, using up to 16 threads.
Root relaxation solution time = 0,00 sec. (1,82 ticks)

        Nodes                                         Cuts/
   Node  Left     Objective  IInf  Best Integer    Best Bound    ItCnt     Gap

*     0+    0                          740,0000        0,0000           100,00%
*     0+    0                          327,0000        0,0000           100,00%
      0     0      148,0000   184      327,0000      148,0000      214   54,74%
      0     0      148,0000   184      327,0000      Cuts: 42      240   54,74%
      0     0      150,0149   184      327,0000      Cuts: 76      313   54,12%
      0     0      151,1792   184      327,0000      Cuts: 88      338   53,77%
      0     0      151,9740   184      327,0000      Cuts: 44      370   53,52%
      0     0      152,1196   184      327,0000      Cuts: 10      383   53,48%
      0     0      152,1458   184      327,0000       Cuts: 9      393   53,47%
      0     0      152,1525   184      327,0000      Cuts: 49      400   53,47%
      0     0      152,1720   184      327,0000   ZeroHalf: 1      406   53,46%
      0     0      152,1960   184      327,0000      Cuts: 19      411   53,46%
      0     0      152,2143   184      327,0000   ZeroHalf: 1      418   53,45%
      0     0      152,2374   184      327,0000      Cuts: 70      424   53,44%
      0     0      152,2589   184      327,0000   ZeroHalf: 1      432   53,44%
      0     0      152,2773   184      327,0000   ZeroHalf: 1      442   53,43%
*     0+    0                          301,0000      152,2773            49,41%
*     0+    0                          288,0000      152,2773            47,13%
      0     2      152,2773   240      288,0000      174,0000      442   39,58%
Elapsed time = 0,16 sec. (92,82 ticks, tree = 0,02 MB, solutions = 4)
   2384  1655      271,1042    30      288,0000      187,3539    43653   34,95%

Performing restart 1

Repeating presolve.
Tried aggregator 1 time.
Reduced MIP has 320 rows, 300 columns, and 1190 nonzeros.
Reduced MIP has 300 binaries, 0 generals, 0 SOSs, and 0 indicators.
Presolve time = 0,00 sec. (0,72 ticks)
Tried aggregator 1 time.
Reduced MIP has 320 rows, 300 columns, and 1190 nonzeros.
Reduced MIP has 300 binaries, 0 generals, 0 SOSs, and 0 indicators.
Presolve time = 0,00 sec. (1,00 ticks)
Represolve time = 0,01 sec. (6,27 ticks)
   4990     0      155,7947   240      288,0000       Cuts: 6   105437   21,43%
   4990     0      157,2075   240      288,0000      Cuts: 21   105490   21,43%
   4990     0      157,9989   240      288,0000       Cuts: 6   105562   21,43%
   4990     0      158,5180   240      288,0000       Cuts: 7   105588   21,43%
   4990     0      158,7124   240      288,0000      Cuts: 15   105630   21,43%
   4990     0      159,2645   240      288,0000      Cuts: 16   105723   21,43%
   4990     2      159,2645   299      288,0000      226,2860   105723   21,43%
   5019    15      187,9665   182      288,0000      226,2860   108094   21,43%
   7005  1129      236,5304   185      288,0000      226,2860   159567   21,43%
   8749  2952      260,1131   170      288,0000      226,2860   225475   21,43%
  11061  4430      263,8944   201      288,0000      226,2860   281269   21,43%

Performing restart 2

Repeating presolve.
Tried aggregator 1 time.
Reduced MIP has 320 rows, 300 columns, and 1190 nonzeros.
Reduced MIP has 300 binaries, 0 generals, 0 SOSs, and 0 indicators.
Presolve time = 0,00 sec. (0,72 ticks)
Tried aggregator 1 time.
Reduced MIP has 320 rows, 300 columns, and 1190 nonzeros.
Reduced MIP has 300 binaries, 0 generals, 0 SOSs, and 0 indicators.
Presolve time = 0,00 sec. (1,00 ticks)
Represolve time = 0,02 sec. (10,98 ticks)
  11522     0      159,7729   299      288,0000       Cuts: 4   315142   21,43%
  11522     0      159,8340   299      288,0000   ZeroHalf: 2   315151   21,43%
  11522     0      159,8734   299      288,0000   ZeroHalf: 4   315166   21,43%
  11522     0      159,9821   299      288,0000       Cuts: 5   315210   21,43%
  11522     0      160,0543   299      288,0000       Cuts: 3   315235   21,43%
  11522     0      160,1321   299      288,0000       Cuts: 2   315255   21,43%
  11522     0      160,1608   299      288,0000       Cuts: 3   315276   21,43%
  11522     0      160,1633   299      288,0000   ZeroHalf: 1   315280   21,43%
  11522     2      160,1633   299      288,0000      226,2860   315280   21,43%
  14009  1334      275,4876    98      288,0000      226,2860   370692   21,43%
* 15105+ 1824                          287,0000      252,4338            12,04%
  17341  1437        cutoff            287,0000      273,1667   460296    4,82%

Clique cuts applied:  15
Cover cuts applied:  349
Flow cuts applied:  4
Mixed integer rounding cuts applied:  25
Zero-half cuts applied:  16
Lift and project cuts applied:  1
Gomory fractional cuts applied:  24

Root node processing (before b&c):
  Real time             =    0,16 sec. (92,50 ticks)
Parallel b&c, 16 threads:
  Real time             =    3,22 sec. (2614,17 ticks)
  Sync time (average)   =    0,81 sec.
  Wait time (average)   =    0,00 sec.
                          ------------
Total (root+branch&cut) =    3,38 sec. (2706,67 ticks)
